
Value of objective function: 20668.00000000

Actual values of the variables:
T                           20668
T1                          20668
T2                          20668
T3                          20668
T4                          20668
d12                          4667
d21                             0
d23                          1000
d24                             0
Tzk1                         4667
Trk2                         6667
x34                             1
Trk3                         4667
Tzk2                        11334
Tzk3                        11334
Tzk                         11334
